NAME : kroB100
TYPE : OP
DIMENSION : 100
COST_LIMIT : 11071
ROUTE_NODES : 49
ROUTE_SCORE : 3238
ROUTE_COST : 11056
NODE_SEQUENCE_SECTION
1
21
86
49
38
20
80
30
69
26
100
56
81
79
65
37
72
7
84
52
43
50
77
16
42
82
33
6
4
87
60
74
57
94
27
71
12
98
32
59
76
99
8
91
28
93
11
3
95
-1
DEPOT_SECTION
1
-1
EOF
